n = 10; 

m=12; 


37	36	1	4	64	74	32	67	73	7		
59	16	90	3	76	74	22	30	89	61		
65	94	96	47	35	34	84	3	60	34		
70	3	43	14	26	83	26	65	47	94		
44	25	85	86	73	58	95	13	50	39		
94	43	6	47	45	51	73	49	31	58		
3	18	43	41	83	62	27	75	52	58		
39	23	28	31	86	19	85	90	77	4		
1	92	83	43	3	3	51	5	38	37		
63	96	50	12	15	11	33	7	4	58		
86	36	19	71	8	77	8	6	40	39		
44	25	85	86	73	58	95	13	50	39		
											
											
											
											
											
											
											
											


